16,8	0,0	9,0	6,8	0,0	0,0	0,0	0,0	0,0	11,0
9,7	16,0	0,0	7,8	5,8	0,0	0,0	7,4	0,0	0,0
0,0	0,0	13,8	0,0	20,0	5,5	0,0	0,0	11,6	0,0
10,7	0,0	13,6	0,0	0,0	0,0	19,9	0,0	0,0	0,0
0,0	14,0	0,0	16,2	17,3	0,0	0,0	15,0	0,0	0,0
0,0	13,8	17,0	0,0	18,5	7,1	0,0	0,0	17,7	0,0
0,0	16,8	0,0	19,9	0,0	0,0	14,4	0,0	0,0	9,4
11,6	0,0	12,9	0,0	0,0	0,0	0,0	0,0	0,0	19,1
0,0	12,2	0,0	5,6	9,3	0,0	0,0	6,6	0,0	0,0
0,0	0,0	18,2	0,0	0,0	9,3	6,4	0,0	0,0	12,5
									
3,2	3,1	3,4	4,8	3,9	3,6	3,7	4,3	4,4	3,8
